

budget= 51200.000000;

nprojects=64;

nareas= 8;

nactivities= 16;

nsynergies= 2;

Areas=[
< 3945.604, 12443.828>
< 2494.389, 10657.842>
< 6030.985, 13991.885>
< 4387.018, 12186.160>
< 2094.741, 6703.171>
< 2145.280, 5792.256>
< 3344.367, 12039.722>
< 8639.176, 16682.545>
];


Projects= [
<2978.10, 5917.68, 5,9.30>
<2242.59, 5891.24, 8,7.48>
<1789.22, 5901.76, 1,6.50>
<1528.88, 5860.78, 7,3.42>
<1613.16, 5690.32, 3,9.16>
<1286.13, 5823.02, 4,8.53>
<2923.55, 5902.02, 7,3.14>
<3987.16, 5893.52, 6,4.40>
<631.16, 5921.04, 7,3.77>
<4272.81, 5837.12, 4,4.75>
<4443.00, 5873.96, 1,4.26>
<3681.56, 5839.94, 7,5.73>
<3522.82, 5879.14, 8,8.39>
<3963.88, 5937.80, 1,7.41>
<1480.13, 5874.32, 3,8.60>
<844.57, 5732.92, 1,6.50>
<4907.68, 5852.80, 3,7.90>
<2021.18, 5966.42, 7,7.69>
<1185.32, 5657.58, 5,5.66>
<4263.98, 5925.88, 4,4.47>
<4346.23, 5879.32, 4,7.69>
<4804.56, 5922.18, 3,4.05>
<3627.76, 5883.98, 8,5.03>
<1518.52, 5941.18, 4,6.57>
<4881.65, 5900.70, 5,4.05>
<274.39, 5827.80, 1,8.04>
<3105.59, 5799.62, 3,9.16>
<4302.34, 5878.58, 2,5.66>
<960.79, 5859.00, 3,4.33>
<4171.98, 5822.10, 8,7.13>
<3286.01, 5817.84, 1,5.17>
<4329.49, 5832.66, 4,8.11>
<3016.68, 5962.82, 8,8.32>
<3679.82, 5838.64, 8,4.82>
<678.87, 5844.66, 8,7.62>
<3657.67, 5756.46, 5,6.08>
<5048.83, 6011.70, 2,9.93>
<4019.60, 5640.92, 8,3.42>
<272.00, 5992.52, 5,6.29>
<4342.82, 5774.12, 7,8.11>
<2473.92, 5784.06, 3,8.95>
<3494.47, 5818.00, 6,9.93>
<379.37, 5839.02, 5,3.84>
<3514.60, 5857.84, 8,9.30>
<2535.65, 5972.98, 6,9.44>
<1326.02, 5729.96, 1,5.45>
<989.98, 5852.56, 3,3.77>
<1848.50, 5722.60, 1,5.03>
<1533.91, 5887.72, 4,3.07>
<3928.36, 5944.98, 1,3.35>
<3155.15, 5857.64, 7,6.78>
<4190.67, 5997.42, 1,3.28>
<1089.80, 5767.96, 4,7.27>
<2144.91, 5822.96, 1,8.95>
<4702.50, 5826.10, 2,7.97>
<3904.02, 5815.94, 2,8.25>
<606.49, 5950.44, 2,6.85>
<2788.10, 5846.18, 7,5.03>
<345.64, 5791.70, 8,4.19>
<3221.85, 5939.44, 2,6.64>
<901.20, 5965.00, 1,4.47>
<2323.90, 5812.90, 3,5.52>
<461.66, 5832.62, 8,6.36>
<618.19, 6042.72, 3,4.61>];

Activities= {
<1, 1, 0.02, 356.00, 376.68>,
<1, 2, 0.09, 280.00, 336.40>,
<1, 3, 0.12, 314.00, 369.04>,
<1, 4, 0.04, 352.00, 378.40>,
<1, 5, 0.04, 322.00, 368.80>,
<1, 6, 0.09, 396.00, 398.20>,
<1, 7, 0.03, 384.00, 396.64>,
<1, 8, 0.03, 288.00, 352.96>,
<1, 9, 0.10, 356.00, 390.76>,
<1, 10, 0.05, 316.00, 351.28>,
<1, 11, 0.02, 356.00, 381.52>,
<1, 12, 0.04, 372.00, 391.60>,
<1, 13, 0.02, 260.00, 366.40>,
<1, 14, 0.12, 344.00, 370.88>,
<1, 15, 0.10, 318.00, 377.04>,
<1, 16, 0.06, 244.00, 311.08>,
<2, 1, 0.02, 390.00, 397.30>,
<2, 2, 0.11, 282.00, 330.38>,
<2, 3, 0.10, 296.00, 339.68>,
<2, 4, 0.02, 362.00, 390.88>,
<2, 5, 0.02, 298.00, 378.58>,
<2, 6, 0.00, 390.00, 397.10>,
<2, 7, 0.11, 270.00, 337.60>,
<2, 8, 0.09, 272.00, 364.16>,
<2, 9, 0.07, 354.00, 375.16>,
<2, 10, 0.09, 256.00, 361.12>,
<2, 11, 0.00, 310.00, 371.20>,
<2, 12, 0.12, 290.00, 358.20>,
<2, 13, 0.00, 282.00, 366.96>,
<2, 14, 0.11, 368.00, 391.36>,
<2, 15, 0.07, 314.00, 349.26>,
<2, 16, 0.06, 370.00, 382.30>,
<3, 1, 0.00, 308.00, 345.72>,
<3, 2, 0.10, 312.00, 350.72>,
<3, 3, 0.06, 382.00, 393.34>,
<3, 4, 0.10, 270.00, 342.80>,
<3, 5, 0.03, 320.00, 373.60>,
<3, 6, 0.04, 380.00, 389.40>,
<3, 7, 0.03, 274.00, 371.02>,
<3, 8, 0.01, 348.00, 374.52>,
<3, 9, 0.06, 330.00, 371.30>,
<3, 10, 0.01, 350.00, 371.50>,
<3, 11, 0.11, 356.00, 381.96>,
<3, 12, 0.10, 374.00, 394.54>,
<3, 13, 0.10, 276.00, 336.76>,
<3, 14, 0.08, 258.00, 353.14>,
<3, 15, 0.08, 352.00, 389.92>,
<3, 16, 0.09, 326.00, 361.52>,
<4, 1, 0.08, 322.00, 355.54>,
<4, 2, 0.07, 244.00, 357.88>,
<4, 3, 0.09, 294.00, 353.36>,
<4, 4, 0.06, 326.00, 372.62>,
<4, 5, 0.04, 286.00, 357.82>,
<4, 6, 0.04, 338.00, 370.24>,
<4, 7, 0.06, 390.00, 394.90>,
<4, 8, 0.03, 338.00, 384.50>,
<4, 9, 0.11, 300.00, 347.00>,
<4, 10, 0.08, 304.00, 352.00>,
<4, 11, 0.12, 356.00, 389.44>,
<4, 12, 0.01, 262.00, 358.60>,
<4, 13, 0.05, 346.00, 372.46>,
<4, 14, 0.01, 346.00, 375.70>,
<4, 15, 0.07, 272.00, 350.08>,
<4, 16, 0.07, 336.00, 368.64>,
<5, 1, 0.07, 268.00, 323.44>,
<5, 2, 0.03, 252.00, 340.80>,
<5, 3, 0.05, 308.00, 355.84>,
<5, 4, 0.12, 254.00, 348.90>,
<5, 5, 0.05, 302.00, 363.74>,
<5, 6, 0.07, 288.00, 368.64>,
<5, 7, 0.02, 260.00, 352.40>,
<5, 8, 0.01, 256.00, 325.12>,
<5, 9, 0.09, 326.00, 378.54>,
<5, 10, 0.08, 264.00, 333.36>,
<5, 11, 0.07, 366.00, 380.62>,
<5, 12, 0.10, 280.00, 367.60>,
<5, 13, 0.11, 336.00, 380.80>,
<5, 14, 0.05, 350.00, 387.00>,
<5, 15, 0.00, 264.00, 342.88>,
<5, 16, 0.10, 294.00, 340.64>,
<6, 1, 0.07, 330.00, 385.30>,
<6, 2, 0.09, 364.00, 380.56>,
<6, 3, 0.09, 282.00, 335.10>,
<6, 4, 0.04, 374.00, 386.48>,
<6, 5, 0.09, 354.00, 390.34>,
<6, 6, 0.05, 358.00, 379.00>,
<6, 7, 0.04, 272.00, 348.80>,
<6, 8, 0.06, 254.00, 321.16>,
<6, 9, 0.05, 330.00, 362.90>,
<6, 10, 0.09, 250.00, 326.50>,
<6, 11, 0.04, 272.00, 324.48>,
<6, 12, 0.07, 244.00, 367.24>,
<6, 13, 0.01, 396.00, 398.80>,
<6, 14, 0.08, 320.00, 376.00>,
<6, 15, 0.05, 262.00, 348.94>,
<6, 16, 0.08, 378.00, 391.42>,
<7, 1, 0.03, 332.00, 376.88>,
<7, 2, 0.11, 266.00, 358.46>,
<7, 3, 0.02, 288.00, 366.40>,
<7, 4, 0.04, 338.00, 378.92>,
<7, 5, 0.05, 374.00, 387.78>,
<7, 6, 0.06, 364.00, 381.64>,
<7, 7, 0.01, 278.00, 363.40>,
<7, 8, 0.09, 258.00, 368.76>,
<7, 9, 0.05, 272.00, 333.44>,
<7, 10, 0.11, 314.00, 381.94>,
<7, 11, 0.10, 380.00, 389.40>,
<7, 12, 0.04, 292.00, 369.76>,
<7, 13, 0.08, 330.00, 362.20>,
<7, 14, 0.07, 254.00, 312.40>,
<7, 15, 0.09, 382.00, 393.52>,
<7, 16, 0.05, 348.00, 377.12>,
<8, 1, 0.02, 344.00, 374.24>,
<8, 2, 0.06, 312.00, 369.20>,
<8, 3, 0.03, 336.00, 366.72>,
<8, 4, 0.02, 364.00, 386.32>,
<8, 5, 0.10, 242.00, 338.38>,
<8, 6, 0.10, 320.00, 356.00>,
<8, 7, 0.05, 314.00, 381.08>,
<8, 8, 0.03, 298.00, 343.90>,
<8, 9, 0.04, 278.00, 370.72>,
<8, 10, 0.08, 362.00, 391.64>,
<8, 11, 0.09, 334.00, 376.24>,
<8, 12, 0.06, 252.00, 328.96>,
<8, 13, 0.10, 370.00, 384.40>,
<8, 14, 0.08, 330.00, 374.80>,
<8, 15, 0.04, 286.00, 363.52>,
<8, 16, 0.09, 370.00, 387.40>,
<9, 1, 0.04, 328.00, 376.96>,
<9, 2, 0.02, 276.00, 347.92>,
<9, 3, 0.10, 318.00, 372.12>,
<9, 4, 0.06, 370.00, 393.40>,
<9, 5, 0.10, 272.00, 353.92>,
<9, 6, 0.05, 358.00, 385.30>,
<9, 7, 0.06, 298.00, 359.20>,
<9, 8, 0.02, 274.00, 360.94>,
<9, 9, 0.07, 356.00, 378.00>,
<9, 10, 0.10, 378.00, 389.88>,
<9, 11, 0.06, 240.00, 305.60>,
<9, 12, 0.01, 382.00, 395.14>,
<9, 13, 0.01, 274.00, 360.94>,
<9, 14, 0.10, 332.00, 365.32>,
<9, 15, 0.10, 380.00, 395.60>,
<9, 16, 0.11, 360.00, 380.80>,
<10, 1, 0.11, 276.00, 339.24>,
<10, 2, 0.03, 384.00, 392.48>,
<10, 3, 0.08, 302.00, 372.56>,
<10, 4, 0.00, 304.00, 373.12>,
<10, 5, 0.13, 360.00, 378.00>,
<10, 6, 0.05, 304.00, 378.88>,
<10, 7, 0.05, 250.00, 332.50>,
<10, 8, 0.04, 330.00, 374.10>,
<10, 9, 0.02, 294.00, 353.36>,
<10, 10, 0.09, 298.00, 355.12>,
<10, 11, 0.03, 320.00, 365.60>,
<10, 12, 0.09, 258.00, 344.62>,
<10, 13, 0.07, 292.00, 342.76>,
<10, 14, 0.02, 330.00, 367.10>,
<10, 15, 0.09, 360.00, 379.20>,
<10, 16, 0.09, 368.00, 388.48>,
<11, 1, 0.08, 256.00, 345.28>,
<11, 2, 0.06, 286.00, 361.24>,
<11, 3, 0.03, 256.00, 326.56>,
<11, 4, 0.07, 240.00, 342.40>,
<11, 5, 0.03, 324.00, 362.76>,
<11, 6, 0.02, 260.00, 369.20>,
<11, 7, 0.07, 360.00, 388.00>,
<11, 8, 0.06, 366.00, 381.64>,
<11, 9, 0.05, 280.00, 329.20>,
<11, 10, 0.10, 278.00, 354.86>,
<11, 11, 0.11, 384.00, 395.20>,
<11, 12, 0.05, 348.00, 378.16>,
<11, 13, 0.05, 378.00, 389.22>,
<11, 14, 0.10, 340.00, 381.40>,
<11, 15, 0.09, 278.00, 373.16>,
<11, 16, 0.05, 392.00, 395.68>,
<12, 1, 0.13, 262.00, 343.42>,
<12, 2, 0.13, 398.00, 399.28>,
<12, 3, 0.07, 256.00, 317.92>,
<12, 4, 0.12, 248.00, 322.48>,
<12, 5, 0.10, 306.00, 378.38>,
<12, 6, 0.08, 374.00, 387.52>,
<12, 7, 0.01, 252.00, 343.76>,
<12, 8, 0.03, 396.00, 397.72>,
<12, 9, 0.05, 348.00, 389.08>,
<12, 10, 0.04, 366.00, 392.52>,
<12, 11, 0.03, 308.00, 345.72>,
<12, 12, 0.03, 324.00, 381.00>,
<12, 13, 0.09, 368.00, 382.08>,
<12, 14, 0.00, 336.00, 367.36>,
<12, 15, 0.01, 286.00, 346.42>,
<12, 16, 0.08, 256.00, 345.28>,
<13, 1, 0.16, 310.00, 371.20>,
<13, 2, 0.05, 246.00, 344.56>,
<13, 3, 0.11, 284.00, 373.32>,
<13, 4, 0.09, 368.00, 385.28>,
<13, 5, 0.05, 356.00, 389.88>,
<13, 6, 0.12, 248.00, 358.96>,
<13, 7, 0.06, 268.00, 322.12>,
<13, 8, 0.00, 350.00, 373.00>,
<13, 9, 0.02, 308.00, 363.20>,
<13, 10, 0.05, 392.00, 396.24>,
<13, 11, 0.02, 324.00, 371.12>,
<13, 12, 0.04, 298.00, 372.46>,
<13, 13, 0.13, 300.00, 376.00>,
<13, 14, 0.01, 298.00, 359.20>,
<13, 15, 0.02, 266.00, 339.70>,
<13, 16, 0.08, 362.00, 382.90>,
<14, 1, 0.06, 312.00, 367.44>,
<14, 2, 0.12, 308.00, 345.72>,
<14, 3, 0.03, 376.00, 391.36>,
<14, 4, 0.08, 304.00, 348.16>,
<14, 5, 0.06, 386.00, 391.74>,
<14, 6, 0.00, 378.00, 393.18>,
<14, 7, 0.11, 356.00, 389.00>,
<14, 8, 0.11, 324.00, 361.24>,
<14, 9, 0.01, 288.00, 360.80>,
<14, 10, 0.12, 292.00, 351.40>,
<14, 11, 0.11, 318.00, 377.86>,
<14, 12, 0.00, 398.00, 399.48>,
<14, 13, 0.04, 296.00, 349.04>,
<14, 14, 0.11, 320.00, 356.00>,
<14, 15, 0.04, 320.00, 363.20>,
<14, 16, 0.01, 366.00, 392.18>,
<15, 1, 0.11, 278.00, 365.84>,
<15, 2, 0.00, 318.00, 378.68>,
<15, 3, 0.05, 276.00, 340.48>,
<15, 4, 0.07, 312.00, 378.88>,
<15, 5, 0.04, 332.00, 364.64>,
<15, 6, 0.03, 358.00, 381.52>,
<15, 7, 0.09, 260.00, 344.00>,
<15, 8, 0.07, 360.00, 382.80>,
<15, 9, 0.08, 258.00, 329.00>,
<15, 10, 0.09, 328.00, 380.56>,
<15, 11, 0.00, 332.00, 380.28>,
<15, 12, 0.10, 360.00, 383.60>,
<15, 13, 0.02, 280.00, 373.60>,
<15, 14, 0.08, 270.00, 338.90>,
<15, 15, 0.09, 308.00, 359.52>,
<15, 16, 0.05, 386.00, 392.02>,
<16, 1, 0.07, 246.00, 323.00>,
<16, 2, 0.10, 272.00, 344.96>,
<16, 3, 0.04, 344.00, 378.72>,
<16, 4, 0.06, 320.00, 360.80>,
<16, 5, 0.10, 324.00, 384.04>,
<16, 6, 0.05, 258.00, 337.52>,
<16, 7, 0.09, 364.00, 378.40>,
<16, 8, 0.04, 310.00, 358.60>,
<16, 9, 0.01, 288.00, 352.96>,
<16, 10, 0.05, 310.00, 363.10>,
<16, 11, 0.07, 322.00, 356.32>,
<16, 12, 0.03, 256.00, 328.00>,
<16, 13, 0.11, 242.00, 354.18>,
<16, 14, 0.03, 398.00, 398.98>,
<16, 15, 0.04, 260.00, 339.80>,
<16, 16, 0.12, 302.00, 373.54>,
<17, 1, 0.09, 242.00, 314.68>,
<17, 2, 0.07, 252.00, 334.88>,
<17, 3, 0.04, 338.00, 369.00>,
<17, 4, 0.05, 330.00, 376.90>,
<17, 5, 0.08, 314.00, 377.64>,
<17, 6, 0.10, 336.00, 373.12>,
<17, 7, 0.01, 270.00, 329.80>,
<17, 8, 0.09, 268.00, 370.96>,
<17, 9, 0.05, 394.00, 397.78>,
<17, 10, 0.01, 382.00, 391.90>,
<17, 11, 0.03, 276.00, 350.40>,
<17, 12, 0.07, 398.00, 398.92>,
<17, 13, 0.04, 240.00, 352.00>,
<17, 14, 0.09, 322.00, 353.20>,
<17, 15, 0.09, 332.00, 374.16>,
<17, 16, 0.08, 362.00, 387.46>,
<18, 1, 0.00, 266.00, 363.82>,
<18, 2, 0.03, 372.00, 386.00>,
<18, 3, 0.10, 290.00, 345.00>,
<18, 4, 0.02, 398.00, 399.38>,
<18, 5, 0.10, 364.00, 389.20>,
<18, 6, 0.09, 398.00, 399.28>,
<18, 7, 0.11, 248.00, 327.04>,
<18, 8, 0.11, 364.00, 392.44>,
<18, 9, 0.04, 370.00, 384.40>,
<18, 10, 0.10, 340.00, 386.80>,
<18, 11, 0.13, 258.00, 347.46>,
<18, 12, 0.07, 328.00, 374.08>,
<18, 13, 0.03, 252.00, 314.16>,
<18, 14, 0.00, 292.00, 373.00>,
<18, 15, 0.03, 398.00, 399.06>,
<18, 16, 0.03, 330.00, 385.30>,
<19, 1, 0.00, 306.00, 353.00>,
<19, 2, 0.09, 252.00, 328.96>,
<19, 3, 0.10, 328.00, 367.60>,
<19, 4, 0.14, 386.00, 394.82>,
<19, 5, 0.09, 280.00, 330.40>,
<19, 6, 0.04, 274.00, 343.30>,
<19, 7, 0.01, 314.00, 361.30>,
<19, 8, 0.04, 314.00, 354.42>,
<19, 9, 0.02, 276.00, 342.96>,
<19, 10, 0.07, 356.00, 382.40>,
<19, 11, 0.08, 294.00, 371.38>,
<19, 12, 0.09, 256.00, 340.96>,
<19, 13, 0.10, 346.00, 381.64>,
<19, 14, 0.07, 242.00, 347.86>,
<19, 15, 0.03, 244.00, 314.20>,
<19, 16, 0.01, 266.00, 342.38>,
<20, 1, 0.05, 382.00, 390.46>,
<20, 2, 0.05, 350.00, 378.50>,
<20, 3, 0.10, 344.00, 368.64>,
<20, 4, 0.11, 252.00, 365.96>,
<20, 5, 0.07, 284.00, 360.56>,
<20, 6, 0.05, 288.00, 351.84>,
<20, 7, 0.05, 366.00, 391.16>,
<20, 8, 0.10, 350.00, 375.00>,
<20, 9, 0.03, 274.00, 328.18>,
<20, 10, 0.01, 280.00, 368.80>,
<20, 11, 0.10, 318.00, 351.62>,
<20, 12, 0.11, 316.00, 359.68>,
<20, 13, 0.08, 398.00, 399.12>,
<20, 14, 0.00, 386.00, 393.84>,
<20, 15, 0.02, 260.00, 349.60>,
<20, 16, 0.08, 388.00, 392.92>,
<21, 1, 0.13, 376.00, 389.44>,
<21, 2, 0.00, 320.00, 368.80>,
<21, 3, 0.10, 358.00, 380.26>,
<21, 4, 0.01, 370.00, 388.00>,
<21, 5, 0.16, 390.00, 395.00>,
<21, 6, 0.00, 260.00, 363.60>,
<21, 7, 0.01, 264.00, 323.84>,
<21, 8, 0.06, 318.00, 376.22>,
<21, 9, 0.04, 398.00, 398.94>,
<21, 10, 0.07, 282.00, 356.34>,
<21, 11, 0.08, 296.00, 367.76>,
<21, 12, 0.00, 258.00, 340.36>,
<21, 13, 0.10, 280.00, 371.20>,
<21, 14, 0.02, 284.00, 375.64>,
<21, 15, 0.11, 310.00, 364.00>,
<21, 16, 0.10, 246.00, 319.92>,
<22, 1, 0.02, 326.00, 382.24>,
<22, 2, 0.12, 296.00, 356.32>,
<22, 3, 0.09, 302.00, 343.16>,
<22, 4, 0.13, 398.00, 399.18>,
<22, 5, 0.03, 258.00, 334.68>,
<22, 6, 0.08, 240.00, 316.80>,
<22, 7, 0.09, 390.00, 394.10>,
<22, 8, 0.00, 248.00, 354.40>,
<22, 9, 0.01, 374.00, 388.30>,
<22, 10, 0.03, 386.00, 396.64>,
<22, 11, 0.13, 380.00, 393.60>,
<22, 12, 0.10, 256.00, 330.88>,
<22, 13, 0.04, 292.00, 369.76>,
<22, 14, 0.05, 386.00, 396.22>,
<22, 15, 0.04, 390.00, 395.60>,
<22, 16, 0.05, 334.00, 370.30>,
<23, 1, 0.09, 306.00, 357.70>,
<23, 2, 0.06, 304.00, 353.92>,
<23, 3, 0.05, 308.00, 362.28>,
<23, 4, 0.08, 360.00, 380.40>,
<23, 5, 0.09, 284.00, 357.08>,
<23, 6, 0.08, 248.00, 363.52>,
<23, 7, 0.09, 296.00, 369.84>,
<23, 8, 0.09, 354.00, 372.40>,
<23, 9, 0.00, 352.00, 380.32>,
<23, 10, 0.01, 286.00, 372.64>,
<23, 11, 0.09, 334.00, 384.82>,
<23, 12, 0.05, 322.00, 382.84>,
<23, 13, 0.05, 268.00, 369.64>,
<23, 14, 0.06, 370.00, 388.60>,
<23, 15, 0.03, 266.00, 349.08>,
<23, 16, 0.09, 270.00, 338.90>,
<24, 1, 0.03, 366.00, 382.32>,
<24, 2, 0.07, 356.00, 382.84>,
<24, 3, 0.13, 336.00, 378.24>,
<24, 4, 0.11, 338.00, 386.36>,
<24, 5, 0.02, 272.00, 336.00>,
<24, 6, 0.06, 256.00, 364.00>,
<24, 7, 0.08, 292.00, 346.00>,
<24, 8, 0.04, 306.00, 356.76>,
<24, 9, 0.02, 348.00, 374.52>,
<24, 10, 0.03, 288.00, 365.28>,
<24, 11, 0.12, 350.00, 383.50>,
<24, 12, 0.01, 370.00, 385.90>,
<24, 13, 0.02, 368.00, 392.64>,
<24, 14, 0.13, 306.00, 353.00>,
<24, 15, 0.06, 346.00, 388.12>,
<24, 16, 0.06, 330.00, 365.70>,
<25, 1, 0.09, 312.00, 352.48>,
<25, 2, 0.07, 380.00, 389.40>,
<25, 3, 0.09, 350.00, 371.50>,
<25, 4, 0.07, 394.00, 396.88>,
<25, 5, 0.02, 304.00, 354.88>,
<25, 6, 0.05, 352.00, 376.48>,
<25, 7, 0.07, 340.00, 380.80>,
<25, 8, 0.04, 304.00, 364.48>,
<25, 9, 0.08, 282.00, 343.36>,
<25, 10, 0.04, 342.00, 386.08>,
<25, 11, 0.10, 398.00, 399.58>,
<25, 12, 0.08, 398.00, 399.52>,
<25, 13, 0.09, 242.00, 339.96>,
<25, 14, 0.04, 388.00, 392.80>,
<25, 15, 0.04, 282.00, 329.20>,
<25, 16, 0.04, 270.00, 323.30>,
<26, 1, 0.04, 304.00, 357.76>,
<26, 2, 0.08, 244.00, 353.20>,
<26, 3, 0.13, 276.00, 351.64>,
<26, 4, 0.06, 314.00, 375.92>,
<26, 5, 0.05, 388.00, 393.16>,
<26, 6, 0.01, 334.00, 372.94>,
<26, 7, 0.07, 368.00, 381.12>,
<26, 8, 0.05, 300.00, 358.00>,
<26, 9, 0.08, 372.00, 384.32>,
<26, 10, 0.06, 294.00, 363.96>,
<26, 11, 0.09, 254.00, 331.38>,
<26, 12, 0.02, 332.00, 359.88>,
<26, 13, 0.10, 248.00, 320.96>,
<26, 14, 0.01, 360.00, 380.40>,
<26, 15, 0.12, 330.00, 377.60>,
<26, 16, 0.05, 316.00, 365.56>,
<27, 1, 0.06, 392.00, 395.36>,
<27, 2, 0.09, 240.00, 339.20>,
<27, 3, 0.08, 292.00, 367.60>,
<27, 4, 0.07, 364.00, 388.84>,
<27, 5, 0.11, 368.00, 386.24>,
<27, 6, 0.10, 266.00, 330.32>,
<27, 7, 0.05, 310.00, 361.30>,
<27, 8, 0.03, 306.00, 349.24>,
<27, 9, 0.09, 240.00, 318.40>,
<27, 10, 0.04, 382.00, 394.78>,
<27, 11, 0.05, 282.00, 330.38>,
<27, 12, 0.08, 300.00, 367.00>,
<27, 13, 0.08, 392.00, 398.24>,
<27, 14, 0.01, 332.00, 380.96>,
<27, 15, 0.00, 242.00, 324.16>,
<27, 16, 0.05, 340.00, 367.60>,
<28, 1, 0.05, 246.00, 355.34>,
<28, 2, 0.07, 306.00, 362.40>,
<28, 3, 0.04, 270.00, 325.90>,
<28, 4, 0.05, 260.00, 370.60>,
<28, 5, 0.06, 386.00, 396.92>,
<28, 6, 0.01, 302.00, 350.02>,
<28, 7, 0.11, 392.00, 397.52>,
<28, 8, 0.10, 398.00, 399.16>,
<28, 9, 0.06, 242.00, 357.34>,
<28, 10, 0.09, 346.00, 386.50>,
<28, 11, 0.02, 316.00, 367.24>,
<28, 12, 0.04, 264.00, 327.92>,
<28, 13, 0.00, 332.00, 375.52>,
<28, 14, 0.10, 370.00, 391.60>,
<28, 15, 0.10, 282.00, 335.10>,
<28, 16, 0.10, 350.00, 379.50>,
<29, 1, 0.08, 326.00, 368.18>,
<29, 2, 0.10, 300.00, 354.00>,
<29, 3, 0.05, 286.00, 366.94>,
<29, 4, 0.10, 378.00, 389.00>,
<29, 5, 0.07, 384.00, 391.68>,
<29, 6, 0.08, 300.00, 347.00>,
<29, 7, 0.07, 342.00, 382.60>,
<29, 8, 0.06, 318.00, 382.78>,
<29, 9, 0.03, 272.00, 332.16>,
<29, 10, 0.01, 348.00, 382.84>,
<29, 11, 0.02, 356.00, 380.64>,
<29, 12, 0.07, 276.00, 339.24>,
<29, 13, 0.09, 278.00, 369.50>,
<29, 14, 0.08, 388.00, 394.12>,
<29, 15, 0.07, 244.00, 311.08>,
<29, 16, 0.04, 244.00, 367.24>,
<30, 1, 0.06, 338.00, 370.86>,
<30, 2, 0.11, 324.00, 355.92>,
<30, 3, 0.08, 322.00, 383.62>,
<30, 4, 0.05, 338.00, 370.24>,
<30, 5, 0.02, 252.00, 345.24>,
<30, 6, 0.06, 296.00, 349.04>,
<30, 7, 0.06, 330.00, 360.10>,
<30, 8, 0.07, 268.00, 367.00>,
<30, 9, 0.02, 336.00, 375.68>,
<30, 10, 0.02, 352.00, 371.20>,
<30, 11, 0.10, 318.00, 377.86>,
<30, 12, 0.02, 394.00, 396.88>,
<30, 13, 0.12, 302.00, 341.20>,
<30, 14, 0.06, 262.00, 343.42>,
<30, 15, 0.06, 286.00, 372.64>,
<30, 16, 0.06, 302.00, 341.20>,
<31, 1, 0.09, 322.00, 377.38>,
<31, 2, 0.10, 322.00, 364.12>,
<31, 3, 0.02, 334.00, 370.96>,
<31, 4, 0.07, 358.00, 379.84>,
<31, 5, 0.05, 272.00, 324.48>,
<31, 6, 0.01, 338.00, 377.68>,
<31, 7, 0.11, 346.00, 387.58>,
<31, 8, 0.06, 296.00, 365.68>,
<31, 9, 0.01, 260.00, 327.20>,
<31, 10, 0.01, 268.00, 355.12>,
<31, 11, 0.04, 324.00, 376.44>,
<31, 12, 0.09, 306.00, 351.12>,
<31, 13, 0.10, 322.00, 356.32>,
<31, 14, 0.06, 360.00, 376.00>,
<31, 15, 0.11, 298.00, 357.16>,
<31, 16, 0.05, 314.00, 370.76>,
<32, 1, 0.07, 246.00, 309.14>,
<32, 2, 0.07, 284.00, 343.16>,
<32, 3, 0.05, 290.00, 362.60>,
<32, 4, 0.09, 392.00, 397.36>,
<32, 5, 0.02, 364.00, 391.36>,
<32, 6, 0.02, 282.00, 372.86>,
<32, 7, 0.07, 254.00, 319.70>,
<32, 8, 0.08, 346.00, 387.04>,
<32, 9, 0.07, 378.00, 392.08>,
<32, 10, 0.03, 390.00, 395.20>,
<32, 11, 0.01, 380.00, 391.00>,
<32, 12, 0.03, 308.00, 344.80>,
<32, 13, 0.11, 296.00, 346.96>,
<32, 14, 0.06, 396.00, 398.12>,
<32, 15, 0.11, 276.00, 357.84>,
<32, 16, 0.09, 268.00, 323.44>,
<33, 1, 0.04, 332.00, 368.72>,
<33, 2, 0.12, 372.00, 385.16>,
<33, 3, 0.03, 290.00, 374.70>,
<33, 4, 0.10, 348.00, 381.28>,
<33, 5, 0.00, 386.00, 394.12>,
<33, 6, 0.13, 270.00, 327.20>,
<33, 7, 0.07, 294.00, 372.44>,
<33, 8, 0.07, 298.00, 363.28>,
<33, 9, 0.07, 316.00, 376.48>,
<33, 10, 0.05, 382.00, 392.26>,
<33, 11, 0.06, 252.00, 333.40>,
<33, 12, 0.15, 398.00, 399.58>,
<33, 13, 0.04, 338.00, 369.00>,
<33, 14, 0.01, 348.00, 371.92>,
<33, 15, 0.07, 320.00, 372.00>,
<33, 16, 0.00, 322.00, 381.28>,
<34, 1, 0.03, 254.00, 328.46>,
<34, 2, 0.00, 344.00, 370.88>,
<34, 3, 0.01, 344.00, 375.92>,
<34, 4, 0.07, 242.00, 305.20>,
<34, 5, 0.11, 354.00, 378.38>,
<34, 6, 0.09, 268.00, 356.44>,
<34, 7, 0.12, 336.00, 370.56>,
<34, 8, 0.12, 266.00, 367.84>,
<34, 9, 0.08, 320.00, 354.40>,
<34, 10, 0.02, 326.00, 368.92>,
<34, 11, 0.10, 390.00, 396.60>,
<34, 12, 0.01, 358.00, 376.06>,
<34, 13, 0.10, 352.00, 384.16>,
<34, 14, 0.06, 332.00, 385.04>,
<34, 15, 0.08, 264.00, 342.88>,
<34, 16, 0.02, 334.00, 376.90>,
<35, 1, 0.06, 342.00, 373.90>,
<35, 2, 0.01, 366.00, 383.68>,
<35, 3, 0.04, 304.00, 376.96>,
<35, 4, 0.07, 368.00, 393.28>,
<35, 5, 0.03, 268.00, 355.12>,
<35, 6, 0.01, 304.00, 352.96>,
<35, 7, 0.07, 298.00, 365.32>,
<35, 8, 0.06, 370.00, 388.60>,
<35, 9, 0.04, 316.00, 352.96>,
<35, 10, 0.14, 272.00, 338.56>,
<35, 11, 0.06, 336.00, 376.32>,
<35, 12, 0.11, 270.00, 328.50>,
<35, 13, 0.14, 382.00, 394.78>,
<35, 14, 0.02, 244.00, 334.48>,
<35, 15, 0.11, 312.00, 377.12>,
<35, 16, 0.03, 274.00, 352.12>,
<36, 1, 0.05, 296.00, 364.64>,
<36, 2, 0.10, 292.00, 336.28>,
<36, 3, 0.08, 370.00, 387.70>,
<36, 4, 0.02, 320.00, 359.20>,
<36, 5, 0.06, 370.00, 382.90>,
<36, 6, 0.00, 388.00, 397.24>,
<36, 7, 0.08, 262.00, 335.14>,
<36, 8, 0.03, 360.00, 384.40>,
<36, 9, 0.09, 254.00, 319.70>,
<36, 10, 0.03, 252.00, 346.72>,
<36, 11, 0.03, 310.00, 366.70>,
<36, 12, 0.11, 288.00, 345.12>,
<36, 13, 0.10, 348.00, 379.20>,
<36, 14, 0.11, 258.00, 334.68>,
<36, 15, 0.03, 294.00, 361.84>,
<36, 16, 0.11, 250.00, 355.00>,
<37, 1, 0.02, 394.00, 396.52>,
<37, 2, 0.01, 372.00, 383.20>,
<37, 3, 0.12, 376.00, 386.08>,
<37, 4, 0.11, 326.00, 359.30>,
<37, 5, 0.08, 314.00, 365.60>,
<37, 6, 0.06, 386.00, 397.06>,
<37, 7, 0.00, 318.00, 356.54>,
<37, 8, 0.00, 342.00, 382.60>,
<37, 9, 0.11, 368.00, 385.60>,
<37, 10, 0.11, 270.00, 359.70>,
<37, 11, 0.08, 286.00, 364.66>,
<37, 12, 0.03, 292.00, 357.88>,
<37, 13, 0.07, 386.00, 392.16>,
<37, 14, 0.10, 246.00, 349.18>,
<37, 15, 0.08, 372.00, 392.72>,
<37, 16, 0.02, 370.00, 382.90>,
<38, 1, 0.04, 248.00, 346.80>,
<38, 2, 0.00, 360.00, 378.40>,
<38, 3, 0.11, 370.00, 382.60>,
<38, 4, 0.03, 356.00, 382.84>,
<38, 5, 0.05, 256.00, 336.64>,
<38, 6, 0.10, 342.00, 370.42>,
<38, 7, 0.04, 318.00, 359.82>,
<38, 8, 0.06, 264.00, 321.12>,
<38, 9, 0.08, 358.00, 390.34>,
<38, 10, 0.01, 248.00, 349.84>,
<38, 11, 0.03, 282.00, 369.32>,
<38, 12, 0.11, 270.00, 325.90>,
<38, 13, 0.12, 278.00, 339.00>,
<38, 14, 0.09, 278.00, 326.80>,
<38, 15, 0.10, 262.00, 331.00>,
<38, 16, 0.01, 248.00, 330.08>,
<39, 1, 0.09, 350.00, 373.50>,
<39, 2, 0.10, 280.00, 371.20>,
<39, 3, 0.09, 374.00, 390.38>,
<39, 4, 0.05, 380.00, 393.00>,
<39, 5, 0.02, 334.00, 384.16>,
<39, 6, 0.08, 316.00, 349.60>,
<39, 7, 0.02, 272.00, 353.92>,
<39, 8, 0.10, 334.00, 386.14>,
<39, 9, 0.01, 334.00, 362.38>,
<39, 10, 0.10, 302.00, 346.10>,
<39, 11, 0.03, 360.00, 390.00>,
<39, 12, 0.05, 360.00, 379.60>,
<39, 13, 0.08, 330.00, 382.50>,
<39, 14, 0.07, 376.00, 388.00>,
<39, 15, 0.04, 372.00, 391.60>,
<39, 16, 0.06, 282.00, 350.44>,
<40, 1, 0.11, 256.00, 319.36>,
<40, 2, 0.05, 348.00, 371.92>,
<40, 3, 0.04, 336.00, 385.92>,
<40, 4, 0.04, 276.00, 342.96>,
<40, 5, 0.08, 276.00, 352.88>,
<40, 6, 0.14, 278.00, 360.96>,
<40, 7, 0.10, 266.00, 330.32>,
<40, 8, 0.07, 376.00, 394.96>,
<40, 9, 0.00, 310.00, 380.20>,
<40, 10, 0.06, 328.00, 382.72>,
<40, 11, 0.07, 308.00, 361.36>,
<40, 12, 0.02, 290.00, 340.60>,
<40, 13, 0.07, 282.00, 336.28>,
<40, 14, 0.00, 308.00, 361.36>,
<40, 15, 0.13, 292.00, 364.36>,
<40, 16, 0.02, 372.00, 387.96>,
<41, 1, 0.01, 368.00, 381.76>,
<41, 2, 0.00, 256.00, 353.92>,
<41, 3, 0.06, 368.00, 387.52>,
<41, 4, 0.07, 352.00, 386.56>,
<41, 5, 0.13, 288.00, 337.28>,
<41, 6, 0.06, 246.00, 315.30>,
<41, 7, 0.04, 328.00, 384.16>,
<41, 8, 0.06, 264.00, 352.40>,
<41, 9, 0.05, 280.00, 366.40>,
<41, 10, 0.11, 264.00, 341.52>,
<41, 11, 0.02, 380.00, 388.80>,
<41, 12, 0.12, 296.00, 364.64>,
<41, 13, 0.06, 300.00, 366.00>,
<41, 14, 0.01, 288.00, 332.80>,
<41, 15, 0.11, 300.00, 360.00>,
<41, 16, 0.08, 330.00, 365.00>,
<42, 1, 0.10, 334.00, 364.36>,
<42, 2, 0.07, 388.00, 393.28>,
<42, 3, 0.06, 326.00, 368.18>,
<42, 4, 0.01, 300.00, 374.00>,
<42, 5, 0.08, 360.00, 381.20>,
<42, 6, 0.03, 386.00, 391.88>,
<42, 7, 0.08, 248.00, 357.44>,
<42, 8, 0.11, 260.00, 331.40>,
<42, 9, 0.03, 258.00, 320.48>,
<42, 10, 0.09, 256.00, 369.76>,
<42, 11, 0.07, 272.00, 368.00>,
<42, 12, 0.10, 298.00, 341.86>,
<42, 13, 0.03, 352.00, 377.44>,
<42, 14, 0.09, 350.00, 375.50>,
<42, 15, 0.02, 246.00, 344.56>,
<42, 16, 0.02, 294.00, 358.66>,
<43, 1, 0.08, 274.00, 354.64>,
<43, 2, 0.06, 334.00, 385.48>,
<43, 3, 0.01, 264.00, 338.80>,
<43, 4, 0.09, 354.00, 383.90>,
<43, 5, 0.09, 258.00, 348.88>,
<43, 6, 0.02, 304.00, 342.40>,
<43, 7, 0.10, 302.00, 361.78>,
<43, 8, 0.03, 394.00, 398.26>,
<43, 9, 0.01, 256.00, 326.56>,
<43, 10, 0.06, 334.00, 360.40>,
<43, 11, 0.10, 350.00, 382.00>,
<43, 12, 0.10, 338.00, 383.26>,
<43, 13, 0.09, 258.00, 364.50>,
<43, 14, 0.04, 392.00, 398.24>,
<43, 15, 0.05, 358.00, 379.84>,
<43, 16, 0.07, 248.00, 330.08>,
<44, 1, 0.03, 278.00, 353.64>,
<44, 2, 0.06, 370.00, 385.90>,
<44, 3, 0.08, 380.00, 390.80>,
<44, 4, 0.00, 368.00, 390.08>,
<44, 5, 0.03, 302.00, 352.96>,
<44, 6, 0.03, 382.00, 392.08>,
<44, 7, 0.12, 290.00, 343.90>,
<44, 8, 0.07, 266.00, 323.62>,
<44, 9, 0.07, 354.00, 377.92>,
<44, 10, 0.06, 274.00, 334.48>,
<44, 11, 0.06, 348.00, 373.48>,
<44, 12, 0.01, 382.00, 389.92>,
<44, 13, 0.10, 272.00, 327.04>,
<44, 14, 0.12, 262.00, 343.42>,
<44, 15, 0.09, 360.00, 389.60>,
<44, 16, 0.08, 378.00, 389.00>,
<45, 1, 0.09, 322.00, 378.16>,
<45, 2, 0.05, 286.00, 336.16>,
<45, 3, 0.05, 246.00, 343.02>,
<45, 4, 0.04, 394.00, 398.26>,
<45, 5, 0.07, 380.00, 389.60>,
<45, 6, 0.02, 312.00, 378.88>,
<45, 7, 0.01, 298.00, 358.18>,
<45, 8, 0.06, 276.00, 357.84>,
<45, 9, 0.03, 260.00, 341.20>,
<45, 10, 0.09, 366.00, 380.62>,
<45, 11, 0.12, 374.00, 387.52>,
<45, 12, 0.01, 392.00, 395.84>,
<45, 13, 0.10, 336.00, 384.64>,
<45, 14, 0.04, 384.00, 396.16>,
<45, 15, 0.10, 336.00, 362.24>,
<45, 16, 0.11, 374.00, 384.66>,
<46, 1, 0.05, 270.00, 366.20>,
<46, 2, 0.09, 266.00, 319.60>,
<46, 3, 0.04, 352.00, 376.96>,
<46, 4, 0.08, 286.00, 361.24>,
<46, 5, 0.05, 366.00, 385.38>,
<46, 6, 0.10, 284.00, 369.84>,
<46, 7, 0.00, 280.00, 330.40>,
<46, 8, 0.04, 382.00, 390.46>,
<46, 9, 0.11, 244.00, 320.44>,
<46, 10, 0.10, 258.00, 341.78>,
<46, 11, 0.04, 366.00, 385.38>,
<46, 12, 0.06, 326.00, 355.60>,
<46, 13, 0.06, 338.00, 376.44>,
<46, 14, 0.01, 336.00, 375.68>,
<46, 15, 0.09, 288.00, 348.48>,
<46, 16, 0.08, 268.00, 326.08>,
<47, 1, 0.11, 366.00, 384.70>,
<47, 2, 0.09, 306.00, 346.42>,
<47, 3, 0.07, 322.00, 375.04>,
<47, 4, 0.00, 332.00, 359.88>,
<47, 5, 0.07, 368.00, 384.32>,
<47, 6, 0.08, 320.00, 361.60>,
<47, 7, 0.06, 358.00, 384.46>,
<47, 8, 0.05, 302.00, 350.02>,
<47, 9, 0.09, 288.00, 365.28>,
<47, 10, 0.11, 304.00, 371.20>,
<47, 11, 0.02, 276.00, 336.76>,
<47, 12, 0.04, 340.00, 375.40>,
<47, 13, 0.03, 380.00, 390.00>,
<47, 14, 0.06, 284.00, 366.36>,
<47, 15, 0.07, 268.00, 343.24>,
<47, 16, 0.05, 292.00, 357.88>,
<48, 1, 0.11, 358.00, 386.14>,
<48, 2, 0.09, 346.00, 368.68>,
<48, 3, 0.10, 276.00, 334.28>,
<48, 4, 0.05, 292.00, 358.96>,
<48, 5, 0.03, 394.00, 397.96>,
<48, 6, 0.01, 264.00, 336.08>,
<48, 7, 0.09, 246.00, 318.38>,
<48, 8, 0.06, 354.00, 387.12>,
<48, 9, 0.03, 278.00, 347.54>,
<48, 10, 0.11, 342.00, 373.90>,
<48, 11, 0.02, 268.00, 328.72>,
<48, 12, 0.04, 280.00, 349.60>,
<48, 13, 0.09, 328.00, 361.12>,
<48, 14, 0.10, 358.00, 375.22>,
<48, 15, 0.03, 240.00, 324.80>,
<48, 16, 0.05, 330.00, 374.10>,
<49, 1, 0.01, 354.00, 374.24>,
<49, 2, 0.10, 292.00, 340.60>,
<49, 3, 0.02, 332.00, 360.56>,
<49, 4, 0.06, 246.00, 332.24>,
<49, 5, 0.00, 370.00, 391.60>,
<49, 6, 0.11, 396.00, 397.96>,
<49, 7, 0.07, 276.00, 349.16>,
<49, 8, 0.07, 326.00, 365.22>,
<49, 9, 0.10, 338.00, 372.72>,
<49, 10, 0.06, 362.00, 384.04>,
<49, 11, 0.09, 264.00, 363.28>,
<49, 12, 0.07, 324.00, 383.28>,
<49, 13, 0.09, 364.00, 389.92>,
<49, 14, 0.01, 242.00, 308.36>,
<49, 15, 0.01, 362.00, 385.18>,
<49, 16, 0.11, 372.00, 389.36>,
<50, 1, 0.09, 270.00, 336.30>,
<50, 2, 0.02, 382.00, 389.20>,
<50, 3, 0.04, 334.00, 381.52>,
<50, 4, 0.10, 262.00, 355.84>,
<50, 5, 0.05, 322.00, 366.46>,
<50, 6, 0.10, 394.00, 396.76>,
<50, 7, 0.04, 350.00, 370.50>,
<50, 8, 0.02, 296.00, 377.12>,
<50, 9, 0.10, 242.00, 333.64>,
<50, 10, 0.09, 340.00, 377.80>,
<50, 11, 0.04, 256.00, 369.76>,
<50, 12, 0.10, 280.00, 347.20>,
<50, 13, 0.00, 306.00, 369.92>,
<50, 14, 0.09, 374.00, 392.20>,
<50, 15, 0.03, 366.00, 382.32>,
<50, 16, 0.09, 396.00, 398.44>,
<51, 1, 0.02, 288.00, 335.04>,
<51, 2, 0.01, 344.00, 370.88>,
<51, 3, 0.05, 358.00, 383.62>,
<51, 4, 0.13, 388.00, 393.64>,
<51, 5, 0.06, 298.00, 361.24>,
<51, 6, 0.07, 272.00, 371.84>,
<51, 7, 0.06, 322.00, 382.06>,
<51, 8, 0.04, 378.00, 390.98>,
<51, 9, 0.04, 266.00, 353.10>,
<51, 10, 0.13, 306.00, 366.16>,
<51, 11, 0.03, 250.00, 362.50>,
<51, 12, 0.03, 244.00, 328.24>,
<51, 13, 0.07, 376.00, 387.28>,
<51, 14, 0.02, 250.00, 328.00>,
<51, 15, 0.10, 322.00, 376.60>,
<51, 16, 0.14, 322.00, 366.46>,
<52, 1, 0.07, 286.00, 363.52>,
<52, 2, 0.09, 306.00, 373.68>,
<52, 3, 0.03, 286.00, 371.50>,
<52, 4, 0.05, 278.00, 374.38>,
<52, 5, 0.09, 376.00, 386.32>,
<52, 6, 0.04, 386.00, 395.94>,
<52, 7, 0.07, 332.00, 363.96>,
<52, 8, 0.10, 282.00, 362.24>,
<52, 9, 0.11, 256.00, 359.68>,
<52, 10, 0.03, 272.00, 368.00>,
<52, 11, 0.02, 366.00, 382.66>,
<52, 12, 0.12, 336.00, 379.52>,
<52, 13, 0.03, 382.00, 391.00>,
<52, 14, 0.03, 386.00, 395.10>,
<52, 15, 0.03, 304.00, 368.32>,
<52, 16, 0.10, 272.00, 361.60>,
<53, 1, 0.02, 340.00, 382.00>,
<53, 2, 0.06, 346.00, 375.70>,
<53, 3, 0.07, 260.00, 339.80>,
<53, 4, 0.06, 332.00, 368.72>,
<53, 5, 0.06, 366.00, 388.10>,
<53, 6, 0.03, 290.00, 371.40>,
<53, 7, 0.05, 240.00, 323.20>,
<53, 8, 0.06, 296.00, 353.20>,
<53, 9, 0.12, 332.00, 380.96>,
<53, 10, 0.06, 398.00, 399.10>,
<53, 11, 0.07, 386.00, 396.92>,
<53, 12, 0.09, 250.00, 344.50>,
<53, 13, 0.06, 242.00, 322.58>,
<53, 14, 0.10, 250.00, 322.00>,
<53, 15, 0.07, 280.00, 334.00>,
<53, 16, 0.01, 282.00, 365.78>,
<54, 1, 0.02, 380.00, 389.40>,
<54, 2, 0.11, 256.00, 322.24>,
<54, 3, 0.01, 378.00, 394.06>,
<54, 4, 0.04, 346.00, 371.92>,
<54, 5, 0.11, 388.00, 393.52>,
<54, 6, 0.12, 328.00, 378.40>,
<54, 7, 0.01, 382.00, 389.38>,
<54, 8, 0.11, 264.00, 355.12>,
<54, 9, 0.14, 292.00, 337.36>,
<54, 10, 0.08, 242.00, 324.16>,
<54, 11, 0.04, 250.00, 361.00>,
<54, 12, 0.01, 244.00, 351.64>,
<54, 13, 0.00, 312.00, 380.64>,
<54, 14, 0.05, 280.00, 328.00>,
<54, 15, 0.09, 388.00, 396.52>,
<54, 16, 0.05, 260.00, 349.60>,
<55, 1, 0.06, 372.00, 389.64>,
<55, 2, 0.09, 322.00, 361.00>,
<55, 3, 0.09, 316.00, 354.64>,
<55, 4, 0.01, 276.00, 339.24>,
<55, 5, 0.05, 286.00, 331.60>,
<55, 6, 0.08, 264.00, 363.28>,
<55, 7, 0.08, 376.00, 387.52>,
<55, 8, 0.07, 338.00, 378.92>,
<55, 9, 0.05, 242.00, 308.36>,
<55, 10, 0.07, 344.00, 369.76>,
<55, 11, 0.08, 264.00, 334.72>,
<55, 12, 0.07, 366.00, 389.80>,
<55, 13, 0.05, 300.00, 360.00>,
<55, 14, 0.03, 346.00, 380.02>,
<55, 15, 0.03, 382.00, 394.24>,
<55, 16, 0.09, 348.00, 383.36>,
<56, 1, 0.14, 380.00, 390.20>,
<56, 2, 0.02, 322.00, 381.28>,
<56, 3, 0.03, 262.00, 350.32>,
<56, 4, 0.07, 254.00, 341.60>,
<56, 5, 0.03, 308.00, 354.00>,
<56, 6, 0.05, 240.00, 334.40>,
<56, 7, 0.12, 352.00, 383.68>,
<56, 8, 0.14, 300.00, 343.00>,
<56, 9, 0.03, 268.00, 336.64>,
<56, 10, 0.03, 322.00, 379.72>,
<56, 11, 0.02, 340.00, 385.00>,
<56, 12, 0.05, 350.00, 380.50>,
<56, 13, 0.11, 304.00, 364.48>,
<56, 14, 0.03, 244.00, 323.56>,
<56, 15, 0.12, 378.00, 386.80>,
<56, 16, 0.02, 326.00, 380.76>,
<57, 1, 0.02, 368.00, 393.28>,
<57, 2, 0.00, 326.00, 378.54>,
<57, 3, 0.02, 242.00, 305.20>,
<57, 4, 0.08, 258.00, 368.76>,
<57, 5, 0.03, 350.00, 382.50>,
<57, 6, 0.08, 392.00, 395.52>,
<57, 7, 0.05, 272.00, 342.40>,
<57, 8, 0.07, 384.00, 396.16>,
<57, 9, 0.04, 296.00, 338.64>,
<57, 10, 0.03, 368.00, 390.72>,
<57, 11, 0.12, 382.00, 393.34>,
<57, 12, 0.08, 346.00, 367.60>,
<57, 13, 0.12, 292.00, 364.36>,
<57, 14, 0.10, 382.00, 391.36>,
<57, 15, 0.03, 374.00, 388.56>,
<57, 16, 0.11, 250.00, 353.50>,
<58, 1, 0.00, 320.00, 357.60>,
<58, 2, 0.06, 306.00, 344.54>,
<58, 3, 0.01, 372.00, 393.56>,
<58, 4, 0.17, 340.00, 381.40>,
<58, 5, 0.11, 246.00, 319.92>,
<58, 6, 0.04, 336.00, 368.00>,
<58, 7, 0.11, 284.00, 371.00>,
<58, 8, 0.13, 280.00, 344.80>,
<58, 9, 0.07, 282.00, 364.60>,
<58, 10, 0.00, 288.00, 339.52>,
<58, 11, 0.07, 310.00, 363.10>,
<58, 12, 0.00, 336.00, 372.48>,
<58, 13, 0.14, 354.00, 386.66>,
<58, 14, 0.06, 386.00, 394.96>,
<58, 15, 0.01, 344.00, 377.04>,
<58, 16, 0.02, 290.00, 367.00>,
<59, 1, 0.03, 248.00, 314.88>,
<59, 2, 0.09, 268.00, 337.96>,
<59, 3, 0.02, 356.00, 374.04>,
<59, 4, 0.03, 330.00, 358.70>,
<59, 5, 0.11, 278.00, 330.46>,
<59, 6, 0.04, 356.00, 381.96>,
<59, 7, 0.03, 328.00, 359.68>,
<59, 8, 0.01, 324.00, 377.20>,
<59, 9, 0.02, 390.00, 397.00>,
<59, 10, 0.02, 326.00, 382.24>,
<59, 11, 0.04, 378.00, 393.62>,
<59, 12, 0.12, 368.00, 384.00>,
<59, 13, 0.12, 346.00, 381.10>,
<59, 14, 0.14, 248.00, 328.56>,
<59, 15, 0.09, 338.00, 370.86>,
<59, 16, 0.09, 248.00, 319.44>,
<60, 1, 0.01, 288.00, 369.76>,
<60, 2, 0.12, 398.00, 399.28>,
<60, 3, 0.12, 342.00, 383.76>,
<60, 4, 0.01, 296.00, 352.16>,
<60, 5, 0.02, 316.00, 364.72>,
<60, 6, 0.11, 356.00, 385.92>,
<60, 7, 0.07, 304.00, 352.96>,
<60, 8, 0.04, 324.00, 355.16>,
<60, 9, 0.03, 292.00, 356.80>,
<60, 10, 0.09, 312.00, 370.96>,
<60, 11, 0.03, 342.00, 380.28>,
<60, 12, 0.05, 384.00, 390.56>,
<60, 13, 0.12, 262.00, 362.74>,
<60, 14, 0.01, 284.00, 366.36>,
<60, 15, 0.09, 324.00, 383.28>,
<60, 16, 0.09, 318.00, 364.74>,
<61, 1, 0.08, 324.00, 368.08>,
<61, 2, 0.06, 290.00, 360.40>,
<61, 3, 0.11, 350.00, 384.50>,
<61, 4, 0.03, 342.00, 375.64>,
<61, 5, 0.11, 320.00, 381.60>,
<61, 6, 0.10, 246.00, 338.40>,
<61, 7, 0.08, 352.00, 378.88>,
<61, 8, 0.05, 386.00, 395.24>,
<61, 9, 0.05, 328.00, 377.68>,
<61, 10, 0.02, 346.00, 373.00>,
<61, 11, 0.09, 302.00, 343.16>,
<61, 12, 0.03, 346.00, 376.78>,
<61, 13, 0.07, 348.00, 377.12>,
<61, 14, 0.00, 394.00, 397.42>,
<61, 15, 0.05, 306.00, 344.54>,
<61, 16, 0.07, 376.00, 392.56>,
<62, 1, 0.01, 252.00, 333.40>,
<62, 2, 0.12, 390.00, 396.00>,
<62, 3, 0.07, 348.00, 373.48>,
<62, 4, 0.01, 350.00, 376.00>,
<62, 5, 0.05, 282.00, 341.00>,
<62, 6, 0.04, 270.00, 345.40>,
<62, 7, 0.09, 250.00, 368.50>,
<62, 8, 0.11, 368.00, 384.32>,
<62, 9, 0.02, 292.00, 354.64>,
<62, 10, 0.11, 380.00, 390.60>,
<62, 11, 0.00, 348.00, 373.48>,
<62, 12, 0.12, 348.00, 380.24>,
<62, 13, 0.13, 384.00, 393.92>,
<62, 14, 0.01, 240.00, 331.20>,
<62, 15, 0.08, 256.00, 332.32>,
<62, 16, 0.02, 288.00, 338.40>,
<63, 1, 0.05, 350.00, 373.00>,
<63, 2, 0.03, 262.00, 321.34>,
<63, 3, 0.07, 288.00, 370.88>,
<63, 4, 0.03, 282.00, 362.24>,
<63, 5, 0.07, 296.00, 375.04>,
<63, 6, 0.08, 306.00, 347.36>,
<63, 7, 0.00, 298.00, 376.54>,
<63, 8, 0.05, 398.00, 399.26>,
<63, 9, 0.09, 378.00, 386.80>,
<63, 10, 0.02, 246.00, 352.26>,
<63, 11, 0.10, 270.00, 333.70>,
<63, 12, 0.11, 298.00, 367.36>,
<63, 13, 0.07, 352.00, 380.32>,
<63, 14, 0.03, 352.00, 389.44>,
<63, 15, 0.11, 310.00, 376.60>,
<63, 16, 0.09, 258.00, 320.48>,
<64, 1, 0.05, 368.00, 393.28>,
<64, 2, 0.00, 358.00, 390.76>,
<64, 3, 0.06, 372.00, 389.08>,
<64, 4, 0.00, 396.00, 398.92>,
<64, 5, 0.10, 390.00, 396.90>,
<64, 6, 0.12, 388.00, 393.04>,
<64, 7, 0.11, 360.00, 383.20>,
<64, 8, 0.10, 258.00, 343.20>,
<64, 9, 0.04, 360.00, 381.60>,
<64, 10, 0.02, 328.00, 361.84>,
<64, 11, 0.04, 280.00, 350.80>,
<64, 12, 0.11, 264.00, 326.56>,
<64, 13, 0.06, 392.00, 397.84>,
<64, 14, 0.02, 374.00, 390.38>,
<64, 15, 0.08, 242.00, 346.28>,
<64, 16, 0.08, 396.00, 399.04>};

Synergies= [
<1 , 0 ,8, 2, 2, 3, 3>,
<2 , 0 ,7, 1, 2, 3, 3>];

SItems= [{<1 ,19, 1>,<1, 45, 16>,<1, 19, 16>},
{<2 ,19, 15>,<2, 45, 6>,<2, 45, 15>}];